solutions/best/exact/exact_077.sol
12
3
1
4
47
41
8
28
5
29
41
63
29
10
43
17
15
14
15
21
37
20
21
62
23
1
10
7
51
26
63
17
31
37
33
34
45
36
1
40
5
27
28
45
43
24
1
48
49
51
47
65
14
52
0
3
4
8
40
48
49
17
65
26
54
64
62
